(set-logic QF_NRA)
(declare-fun skoZ () Real)
(declare-fun skoY () Real)
(declare-fun skoX () Real)
(assert (and (not (<= (+ (* 201600 skoZ) (* 907200 skoY) (* 907200 skoX) (* 141120 (* skoX skoX)) (* 141120 (* skoY skoY)) (* 282240 (* skoY skoX)) (* (- 161280) (* skoZ skoZ)) (* (- 171360) (* skoZ skoY)) (* (- 171360) (* skoZ skoX)) (* 15120 (* skoX skoX skoX)) (* 45360 (* skoY skoX skoX)) (* 15120 (* skoY skoY skoY)) (* 45360 (* skoY skoY skoX)) (* (- 25200) (* skoZ skoX skoX)) (* (- 25200) (* skoZ skoY skoY)) (* (- 50400) (* skoZ skoY skoX)) (* 24960 (* skoZ skoZ skoZ)) (* 1440 (* skoZ skoZ skoY)) (* 1440 (* skoZ skoZ skoX)) (* (- 7560) (* skoZ skoX skoX skoX)) (* (- 22680) (* skoZ skoY skoX skoX)) (* (- 7560) (* skoZ skoY skoY skoY)) (* (- 22680) (* skoZ skoY skoY skoX)) (* (- 7560) (* skoZ skoZ skoX skoX)) (* (- 7560) (* skoZ skoZ skoY skoY)) (* (- 15120) (* skoZ skoZ skoY skoX)) (* (- 2400) (* skoZ skoZ skoZ skoZ)) (* (- 3240) (* skoZ skoZ skoZ skoY)) (* (- 3240) (* skoZ skoZ skoZ skoX)) (* 1620 (* skoZ skoZ skoX skoX skoX)) (* 4860 (* skoZ skoZ skoY skoX skoX)) (* 1620 (* skoZ skoZ skoY skoY skoY)) (* 4860 (* skoZ skoZ skoY skoY skoX)) (* 3180 (* skoZ skoZ skoZ skoX skoX)) (* 3180 (* skoZ skoZ skoZ skoY skoY)) (* 6360 (* skoZ skoZ skoZ skoY skoX)) (* 480 (* skoZ skoZ skoZ skoZ skoZ)) (* 2040 (* skoZ skoZ skoZ skoZ skoY)) (* 2040 (* skoZ skoZ skoZ skoZ skoX)) (* (- 180) (* skoZ skoZ skoZ skoX skoX skoX)) (* (- 540) (* skoZ skoZ skoZ skoY skoX skoX)) (* (- 180) (* skoZ skoZ skoZ skoY skoY skoY)) (* (- 540) (* skoZ skoZ skoZ skoY skoY skoX)) (* (- 456) (* skoZ skoZ skoZ skoZ skoX skoX)) (* (- 456) (* skoZ skoZ skoZ skoZ skoY skoY)) (* (- 912) (* skoZ skoZ skoZ skoZ skoY skoX)) (* (- 96) (* skoZ skoZ skoZ skoZ skoZ skoZ)) (* (- 372) (* skoZ skoZ skoZ skoZ skoZ skoY)) (* (- 372) (* skoZ skoZ skoZ skoZ skoZ skoX)) (* 9 (* skoZ skoZ skoZ skoZ skoX skoX skoX)) (* 27 (* skoZ skoZ skoZ skoZ skoY skoX skoX)) (* 9 (* skoZ skoZ skoZ skoZ skoY skoY skoY)) (* 27 (* skoZ skoZ skoZ skoZ skoY skoY skoX)) (* 27 (* skoZ skoZ skoZ skoZ skoZ skoX skoX)) (* 27 (* skoZ skoZ skoZ skoZ skoZ skoY skoY)) (* 54 (* skoZ skoZ skoZ skoZ skoZ skoY skoX)) (* 9 (* skoZ skoZ skoZ skoZ skoZ skoZ skoZ)) (* 27 (* skoZ skoZ skoZ skoZ skoZ skoZ skoY)) (* 27 (* skoZ skoZ skoZ skoZ skoZ skoZ skoX))) (- 1411200))) (and (<= (+ (* (- 1) skoZ) (* (- 1) skoY) (* (- 1) skoX)) (- 2)) (and (<= (+ skoZ skoY skoX) 2) (and (<= skoZ 1) (and (<= skoY 1) (and (<= skoX 1) (and (<= (* (- 1) skoZ) 0) (and (<= (* (- 1) skoY) 0) (<= (* (- 1) skoX) 0))))))))))
(set-info :status sat)
(check-sat)
